N = 9;
H = 6;
T = 2;

avail = array3d(1..N, 1..H, 1..T, [2, 2, 9, 7, 7, 2, 9, 8, 0, 10, 3, 0, 3, 1, 2, 5, 5, 3, 0, 6, 8, 4, 1, 7, 8, 0, 5, 3, 10, 10, 7, 5, 5, 1, 6, 5, 0, 2, 9, 4, 6, 4, 6, 6, 10, 2, 9, 3, 9, 6, 5, 2, 2, 10, 5, 1, 1, 8, 9, 3, 4, 2, 2, 1, 5, 3, 0, 10, 10, 7, 4, 1, 7, 7, 8, 10, 5, 7, 7, 5, 6, 3, 2, 0, 2, 2, 8, 1, 9, 3, 2, 2, 3, 3, 2, 1, 10, 1, 0, 0, 0, 4, 5, 8, 2, 8, 6, 0]);

r = array2d(1..H, 1..T, [1, 2, 3, 2, 2, 3, 5, 1, 1, 4, 3, 2]);
